webassembly/ejemplos_dzn/folder13_json_17.dzn
TERM = { '.', 's(5)', 's(2)', 's(4)', 'in_1', 'local_0', 'local_1', 'in_6', 'in_2', 'in_3', 'in_4', 'in_9', 'in_8', 's(1)', 's(0)', 'in_7', 'in_5', 's(3)', 'in_0'};
null = '.';
s = 13;
n = 15;
ndeps = 6;
max_registers_sz = 5;
NR = 2;
registers = [|'local_0', 's(5)', |'local_1', 'in_4'|];
dependencies = [|'i32.load16_s_2', 'i32.store16_3', |'i32.store16_3', 'i32.store_4', |'i32.store_4', 'i32.store16_7', |'i32.store16_7', 'call[function_index(0)]_8', |'call[function_index(0)]_8', 'i32.store_9', |'i32.store_9', 'i32.load_12'|];
GET_ENUM = { GET1, GET2, GET3, GET4, GET5, GET6, GET7};
SET_ENUM = { SET1, SET2, SET3, SET4, SET5, SET6, SET7};
TEE_ENUM = { TEE1, TEE2, TEE3, TEE4, TEE5, TEE6, TEE7};
N = 8;
OP = { 'call[function_index(0)]_8', 'i32.load16_s_2', 'i32.store16_3', 'i32.store_4', 'i32.store16_7', 'i32.store_9', 'i32.const_0', 'i32.load_12' };
in_ops = [3, 1, 2, 2, 2, 2, 0, 1 ];
out_ops = [3, 1, 0, 0, 0, 0, 1, 1 ];
in1 = ['in_7', 'local_1', 's(0)', 'in_2', 'in_5', 's(3)', '.', 's(5)' ];
in2 = ['in_8', '.', 'in_1', 'in_3', 'in_6', 's(2)', '.', '.' ];
in3 = ['in_9', '.', '.', '.', '.', '.', '.', '.' ];
out1 = ['s(3)', 's(0)', '.', '.', '.', '.', 's(5)', 's(4)' ];
out2 = ['s(2)', '.', '.', '.', '.', '.', '.', '.' ];
out3 = ['s(1)', '.', '.', '.', '.', '.', '.', '.' ];
comm = [false, false, false, false, false, false, false, false ];
gas = [1, 1, 1, 1, 1, 1, 1, 1 ];
sz = [1, 1, 1, 1, 1, 1, 1, 1 ];
stor = [true, false, true, true, true, true, false, false ];
lb = [ 1, 1, 1, 1, 1, 1, 1, 1 ];
ub = [ 13, 13, 13, 13, 13, 13, 13, 13 ];
startstack = [ 'in_0', 'in_1', 'in_2', 'in_3', 'in_4', 'in_5', 'in_6', 'in_7', 'in_8', 'in_9', null, null, null, null, null ];
endstack = [ 's(4)', 's(1)', null, null, null, null, null, null, null, null, null, null, null, null, null ];
