webassembly/ejemplos_results/13/folder13_json_17.txt
value = 13;
fgas = [1, 2, 1, 1, 1, 1, 1, 1, 1, 1, 1, 1, 1];
fsize = [1, 1, 1, 1, 1, 1, 1, 1, 1, 1, 1, 1, 1];
states = 
[|    in_0,   in_1,   in_2, in_3, in_4, in_5, in_6, in_7, in_8, in_9, '.', '.', '.', '.', '.'
 |    in_1,   in_2,   in_3, in_4, in_5, in_6, in_7, in_8, in_9,  '.', '.', '.', '.', '.', '.'
 |    in_2,   in_3,   in_4, in_5, in_6, in_7, in_8, in_9,  '.',  '.', '.', '.', '.', '.', '.'
 |    in_4,   in_5,   in_6, in_7, in_8, in_9,  '.',  '.',  '.',  '.', '.', '.', '.', '.', '.'
 |  's(5)',   in_4,   in_5, in_6, in_7, in_8, in_9,  '.',  '.',  '.', '.', '.', '.', '.', '.'
 |    in_4,   in_5,   in_6, in_7, in_8, in_9,  '.',  '.',  '.',  '.', '.', '.', '.', '.', '.'
 |    in_5,   in_6,   in_7, in_8, in_9,  '.',  '.',  '.',  '.',  '.', '.', '.', '.', '.', '.'
 |    in_7,   in_8,   in_9,  '.',  '.',  '.',  '.',  '.',  '.',  '.', '.', '.', '.', '.', '.'
 |  's(3)', 's(2)', 's(1)',  '.',  '.',  '.',  '.',  '.',  '.',  '.', '.', '.', '.', '.', '.'
 | local_1,   in_1,    '.',  '.',  '.',  '.',  '.',  '.',  '.',  '.', '.', '.', '.', '.', '.'
 |  's(0)',   in_1,    '.',  '.',  '.',  '.',  '.',  '.',  '.',  '.', '.', '.', '.', '.', '.'
 |  's(5)', 's(1)',    '.',  '.',  '.',  '.',  '.',  '.',  '.',  '.', '.', '.', '.', '.', '.'
 |  's(5)', 's(1)',    '.',  '.',  '.',  '.',  '.',  '.',  '.',  '.', '.', '.', '.', '.', '.'
 |  's(4)', 's(1)',    '.',  '.',  '.',  '.',  '.',  '.',  '.',  '.', '.', '.', '.', '.', '.'
 |];
register_states = 
[| local_0, local_1, '.', '.', '.', '.', '.'
 | local_0,    in_0, '.', '.', '.', '.', '.'
 | local_0,    in_0, '.', '.', '.', '.', '.'
 | local_0,    in_0, '.', '.', '.', '.', '.'
 | local_0,    in_0, '.', '.', '.', '.', '.'
 | local_0,  's(5)', '.', '.', '.', '.', '.'
 | local_0,    in_4, '.', '.', '.', '.', '.'
 | local_0,    in_4, '.', '.', '.', '.', '.'
 | local_0,    in_4, '.', '.', '.', '.', '.'
 | local_0,    in_4, '.', '.', '.', '.', '.'
 | local_0,    in_4, '.', '.', '.', '.', '.'
 | local_0,    in_4, '.', '.', '.', '.', '.'
 |  's(5)',    in_4, '.', '.', '.', '.', '.'
 |  's(5)',    in_4, '.', '.', '.', '.', '.'
 |];
program = [S(SET2), POP, O('i32.store_4'), O('i32.const_0'), S(SET2), S(SET2), O('i32.store16_7'), O('call[function_index(0)]_8'), O('i32.store_9'), O('i32.load16_s_2'), O('i32.store16_3'), TEE(TEE1), O('i32.load_12')];
% time elapsed: 0.86 s
----------
value = 12;
fgas = [2, 2, 1, 1, 1, 1, 1, 1, 1, 1, 1, 1, 0];
fsize = [1, 1, 1, 1, 1, 1, 1, 1, 1, 1, 1, 1, 1];
states = 
[|    in_0,   in_1,   in_2, in_3, in_4, in_5, in_6, in_7, in_8, in_9, '.', '.', '.', '.', '.'
 |    in_1,   in_2,   in_3, in_4, in_5, in_6, in_7, in_8, in_9,  '.', '.', '.', '.', '.', '.'
 |    in_2,   in_3,   in_4, in_5, in_6, in_7, in_8, in_9,  '.',  '.', '.', '.', '.', '.', '.'
 |    in_4,   in_5,   in_6, in_7, in_8, in_9,  '.',  '.',  '.',  '.', '.', '.', '.', '.', '.'
 |  's(5)',   in_4,   in_5, in_6, in_7, in_8, in_9,  '.',  '.',  '.', '.', '.', '.', '.', '.'
 |    in_4,   in_5,   in_6, in_7, in_8, in_9,  '.',  '.',  '.',  '.', '.', '.', '.', '.', '.'
 |    in_5,   in_6,   in_7, in_8, in_9,  '.',  '.',  '.',  '.',  '.', '.', '.', '.', '.', '.'
 |    in_7,   in_8,   in_9,  '.',  '.',  '.',  '.',  '.',  '.',  '.', '.', '.', '.', '.', '.'
 |  's(3)', 's(2)', 's(1)',  '.',  '.',  '.',  '.',  '.',  '.',  '.', '.', '.', '.', '.', '.'
 | local_1,   in_1,    '.',  '.',  '.',  '.',  '.',  '.',  '.',  '.', '.', '.', '.', '.', '.'
 |  's(0)',   in_1,    '.',  '.',  '.',  '.',  '.',  '.',  '.',  '.', '.', '.', '.', '.', '.'
 |  's(5)', 's(1)',    '.',  '.',  '.',  '.',  '.',  '.',  '.',  '.', '.', '.', '.', '.', '.'
 |  's(4)', 's(1)',    '.',  '.',  '.',  '.',  '.',  '.',  '.',  '.', '.', '.', '.', '.', '.'
 |  's(4)', 's(1)',    '.',  '.',  '.',  '.',  '.',  '.',  '.',  '.', '.', '.', '.', '.', '.'
 |];
register_states = 
[| local_0, local_1, '.', '.', '.', '.', '.'
 | local_0, local_1, '.', '.', '.', '.', '.'
 | local_0, local_1, '.', '.', '.', '.', '.'
 | local_0, local_1, '.', '.', '.', '.', '.'
 | local_0, local_1, '.', '.', '.', '.', '.'
 |  's(5)', local_1, '.', '.', '.', '.', '.'
 |  's(5)',    in_4, '.', '.', '.', '.', '.'
 |  's(5)',    in_4, '.', '.', '.', '.', '.'
 |  's(5)',    in_4, '.', '.', '.', '.', '.'
 |  's(5)',    in_4, '.', '.', '.', '.', '.'
 |  's(5)',    in_4, '.', '.', '.', '.', '.'
 |  's(5)',    in_4, '.', '.', '.', '.', '.'
 |  's(5)',    in_4, '.', '.', '.', '.', '.'
 |  's(5)',    in_4, '.', '.', '.', '.', '.'
 |];
program = [POP, POP, O('i32.store_4'), O('i32.const_0'), S(SET1), S(SET2), O('i32.store16_7'), O('call[function_index(0)]_8'), O('i32.store_9'), O('i32.load16_s_2'), O('i32.store16_3'), O('i32.load_12'), NOP];
% time elapsed: 0.96 s
----------
=====UNKNOWN=====
% time elapsed: 0.99 s
